20
5
269188
0
0
16 12 24 13 12
1
0
59 58 43 48 60
2
0
11 7 7 10 11
3
0
79 60 70 67 77
4
0
7 4 16 7 5
5
0
95 91 75 81 121
6
0
110 83 91 104 96
7
0
20 14 25 14 21
8
0
6 9 11 9 5
9
0
167 156 155 155 139
10
0
133 137 142 139 119
11
0
79 110 118 95 97
12
0
85 87 104 67 79
13
0
39 65 34 38 57
14
0
61 34 57 57 52
15
0
10 10 9 11 9
16
0
55 42 56 55 57
17
0
3 5 4 5 4
18
0
21 17 21 11 16
19
0
177 118 139 138 103
